p cnf 170 219
-64 -56 -54 -115 -113 -49 -45 -105 -37 -96 -94 -157 -28 -26 -153 -86 -84 -19 -144 -78 -12 -74 -8 -135 -66 0
-64 -56 -54 -115 -113 -47 -45 -105 -37 -96 -94 -157 -28 -26 -153 -86 -84 -19 -144 -76 -12 -74 -8 -135 -66 0
-124 -60 -122 -59 -52 -114 -110 -105 -41 -40 -100 -33 -96 -31 -158 -70 -69 -90 -26 -153 -151 -86 -22 -80 -143 -78 -141 -134 -133 0
-64 -125 -123 -56 -54 -115 -113 -45 -107 -103 -37 -35 -96 -94 -30 -158 -26 -153 -88 -151 -84 -18 -144 -78 -142 -74 -137 -133 -66 0
-64 -123 -56 -54 -115 -113 -47 -45 -105 -39 -96 -159 -94 -27 -153 -151 -86 -84 -19 -144 -142 -76 -74 -9 -135 -133 -66 0
-64 -123 -57 -54 -115 -113 -48 -45 -106 -37 -96 -159 -94 -30 -153 -88 -151 -84 -19 -144 -142 -76 -12 -74 -137 -133 -66 0
-64 -123 -57 -54 -115 -113 -48 -45 -105 -38 -96 -159 -94 -29 -153 -151 -86 -21 -84 -144 -142 -77 -12 -74 -135 -133 -66 0
-64 -123 -56 -54 -115 -113 -47 -45 -105 -37 -96 -159 -94 -28 -153 -151 -86 -84 -19 -144 -142 -76 -12 -74 -135 -133 -66 0
-60 -56 -117 -50 -49 -105 -41 -39 -33 -96 -31 -160 -92 -156 -23 -85 -21 -83 -149 -147 -17 -75 -137 -71 -6 -66 0
161 -125 -12 -122 -4 -3 0
160 -112 -142 -103 -132 -161 0
-62 -57 -117 -52 -111 -47 -107 -43 -102 -37 -98 -34 -161 -92 -28 -155 -88 -24 -151 -19 -82 -146 -67 -15 -78 -141 -137 -72 -5 -131 0
-62 -56 -53 -115 -111 -47 -44 -105 -103 -39 -35 -161 -96 -93 -28 -153 -23 -86 -151 -19 -82 -17 -144 -141 -76 -72 -135 -6 -131 -66 0
-35 162 -125 -4 -3 -17 0
-26 -8 -103 -162 159 0
-142 -122 -151 -103 -132 157 -162 0
163 -8 -4 -3 -49 0
-124 -123 -60 -59 -114 -50 -112 -42 -104 -40 -101 -163 -33 -70 -95 -31 -155 -90 -26 -151 -86 -22 -17 -80 -144 -142 -13 -76 -134 -133 -68 0
-12 -163 158 -17 0
-30 -21 165 0
-125 -61 -122 -58 -115 -51 -112 -42 -105 -40 -103 -165 -71 -33 -96 -158 -91 -155 -24 -151 -86 -68 -146 -81 -142 -76 -135 -132 0
-125 -61 -122 -58 -115 -51 -112 -42 -105 -40 -102 -165 -71 -33 -96 -158 -91 -155 -24 -151 -86 -68 -146 -81 -142 -76 -135 -132 0
-125 -61 -58 -120 -115 -51 -110 -42 -105 -40 -101 -165 -71 -34 -96 -158 -91 -153 -88 -24 -151 -80 -144 -78 -142 -135 -68 -131 0
-128 -64 -123 -58 -118 -54 -113 -45 -108 -103 -37 -165 -99 -35 -94 -158 -156 -26 -88 -151 -84 -147 -79 -142 -137 -71 -133 -68 0
-64 -123 -56 -54 -115 -113 -46 -45 -104 -39 -165 -96 -159 -94 -153 -151 -86 -84 -144 -78 -142 -12 -74 -134 -133 -66 0
-64 -123 -57 -54 -115 -112 -47 -45 -105 -38 -165 -97 -159 -94 -153 -88 -151 -84 -144 -142 -77 -12 -74 -136 -132 -67 0
-125 -123 -56 -115 -113 -45 -107 -103 -37 -164 -35 -165 -96 -158 -155 -26 -151 -86 -84 -146 -142 -76 -74 -137 -133 -68 0
-125 -122 -57 -117 -113 -45 -106 -103 -37 -164 -35 -165 -97 -158 -26 -153 -151 -86 -83 -144 -78 -142 -74 -135 -133 -67 0
-83 166 -73 0
-64 -56 -54 -116 -113 -49 -45 -107 -39 -166 -98 -93 -28 -157 -26 -153 -86 -18 -144 -76 -12 -137 -8 -68 0
-64 -123 -58 -54 -117 -112 -47 -45 -107 -38 -166 -98 -159 -94 -28 -153 -88 -151 -20 -146 -78 -142 -12 -135 -133 -66 0
-64 -123 -56 -54 -117 -112 -47 -44 -105 -39 -166 -96 -159 -94 -28 -153 -151 -86 -20 -144 -78 -142 -12 -135 -132 -66 0
-56 -115 -112 -47 -45 -105 -38 -166 -164 -96 -157 -28 -26 -153 -86 -21 -144 -76 -12 -8 -135 -66 0
-56 -115 -112 -46 -45 -105 -166 -36 -164 -96 -157 -28 -26 -153 -86 -19 -144 -76 -12 -8 -135 -66 0
-58 -117 -112 -47 -44 -107 -38 -166 -164 -98 -157 -28 -153 -88 -24 -21 -144 -78 -12 -135 -6 -66 0
-56 -115 -112 -47 -45 -105 -166 -37 -164 -96 -157 -28 -26 -153 -86 -19 -144 -76 -12 -8 -135 -66 0
-56 -117 -49 -112 -44 -106 -39 -166 -164 -96 -157 -28 -153 -24 -87 -19 -144 -76 -12 -137 -6 -66 0
-122 -56 -115 -112 -47 -44 -105 -166 -37 -164 -96 -159 -28 -153 -86 -149 -19 -144 -141 -76 -11 -135 -131 -66 0
-122 -56 -115 -112 -46 -44 -105 -166 -37 -164 -96 -159 -28 -153 -86 -149 -19 -144 -141 -76 -12 -135 -131 -66 0
-122 -58 -115 -111 -47 -44 -105 -166 -37 -164 -96 -159 -28 -153 -86 -150 -21 -144 -141 -76 -12 -135 -131 -66 0
-64 -125 -123 -58 -54 -117 -112 -45 -107 -103 -38 -165 -166 -35 -98 -94 -158 -155 -26 -88 -151 -68 -146 -78 -142 -137 -132 0
-56 -117 -112 -47 -44 -107 -39 -166 -165 -164 -96 -157 -155 -88 -24 -146 -78 -12 -137 -7 -68 0
-56 -115 -49 -112 -44 -105 -166 -37 -164 -165 -96 -157 -25 -153 -86 -144 -76 -12 -136 -6 -66 0
-56 -115 -112 -47 -44 -107 -39 -166 -165 -164 -96 -157 -154 -88 -24 -146 -76 -12 -137 -6 -67 0
-58 -117 -49 -112 -44 -107 -166 -37 -164 -165 -98 -157 -155 -88 -24 -146 -78 -12 -137 -6 -66 0
-56 -115 -112 -47 -44 -105 -39 -166 -165 -164 -98 -157 -153 -24 -86 -145 -76 -12 -137 -5 -68 0
-56 -115 -49 -112 -44 -105 -39 -166 -165 -164 -98 -157 -155 -24 -86 -144 -76 -10 -8 -135 -68 0
-56 -117 -112 -47 -44 -106 -39 -166 -165 -164 -96 -157 -153 -24 -86 -144 -78 -10 -135 -5 -68 0
-58 -117 -47 -44 -105 -166 -37 -164 -35 -165 -97 -160 -155 -88 -24 -151 -146 -16 -78 -137 -6 -68 0
-56 -115 -49 -44 -105 -39 -166 -165 -164 -35 -98 -160 -154 -88 -24 -151 -145 -15 -76 -137 -5 -66 0
-58 -115 -49 -44 -107 -38 -165 -164 -35 -98 -166 -160 -154 -88 -24 -151 -146 -15 -76 -137 -6 -68 0
-39 -58 167 0
-61 -115 -51 -49 -42 -105 -167 -33 -96 -31 -160 -93 -155 -24 -86 -21 -149 -146 -81 -16 -76 -137 -8 -71 -66 0
-118 -113 -49 -45 -107 -167 -164 -98 -157 -28 -153 -88 -24 -21 -83 -146 -78 -74 -9 -8 -134 -66 0
-125 -61 -120 -115 -51 -110 -42 -105 -167 -101 -165 -35 -71 -96 -158 -91 -153 -88 -24 -151 -68 -81 -144 -78 -142 -135 -132 0
-125 -61 -122 -115 -51 -110 -42 -105 -167 -101 -165 -71 -33 -96 -158 -91 -153 -88 -24 -151 -68 -80 -144 -78 -142 -135 -132 0
-64 -127 -122 -54 -117 -112 -45 -107 -103 -167 -165 -35 -98 -94 -158 -155 -26 -88 -151 -68 -84 -147 -78 -142 -74 -137 -132 0
-125 -61 -122 -115 -51 -112 -42 -105 -103 -167 -165 -33 -96 -158 -92 -155 -24 -151 -86 -146 -81 -142 -76 -137 -71 -132 -66 0
-125 -61 -122 -115 -51 -111 -42 -105 -167 -101 -165 -71 -34 -96 -158 -91 -153 -24 -151 -86 -68 -81 -144 -78 -142 -135 -132 0
-125 -61 -122 -115 -51 -111 -42 -105 -167 -102 -165 -71 -34 -96 -158 -91 -155 -24 -151 -86 -68 -81 -144 -142 -76 -135 -132 0
-125 -61 -120 -115 -51 -110 -43 -105 -167 -101 -165 -35 -98 -71 -158 -91 -26 -88 -152 -151 -81 -144 -78 -141 -135 -68 -130 0
-125 -61 -120 -52 -115 -109 -44 -107 -167 -101 -165 -35 -98 -71 -158 -91 -25 -88 -153 -149 -81 -144 -78 -140 -135 -68 -130 0
-125 -61 -122 -115 -51 -112 -42 -105 -167 -102 -165 -71 -34 -96 -158 -91 -155 -24 -151 -86 -68 -81 -144 -142 -76 -135 -132 0
-62 -125 -120 -52 -115 -110 -44 -107 -167 -101 -165 -35 -98 -71 -158 -91 -153 -88 -24 -149 -81 -144 -78 -140 -135 -68 -130 0
-125 -61 -122 -115 -51 -112 -42 -105 -167 -102 -165 -71 -33 -96 -158 -91 -155 -24 -151 -86 -68 -81 -144 -142 -76 -135 -132 0
-125 -61 -121 -115 -51 -110 -42 -105 -167 -101 -165 -35 -71 -96 -158 -91 -153 -88 -24 -151 -68 -81 -144 -78 -142 -135 -132 0
-125 -61 -122 -115 -51 -113 -42 -105 -103 -167 -165 -33 -96 -158 -93 -155 -24 -151 -86 -146 -81 -142 -76 -137 -71 -132 -66 0
-125 -61 -122 -115 -51 -110 -42 -105 -167 -101 -165 -35 -71 -96 -158 -91 -153 -24 -151 -86 -68 -81 -144 -78 -142 -135 -132 0
-125 -61 -120 -115 -51 -110 -43 -105 -167 -101 -165 -35 -71 -96 -158 -91 -153 -88 -24 -151 -68 -81 -144 -78 -142 -135 -132 0
-64 -125 -123 -54 -115 -113 -45 -107 -103 -167 -165 -35 -98 -94 -158 -155 -26 -151 -86 -84 -146 -142 -76 -74 -137 -133 -68 0
-125 -61 -122 -115 -51 -111 -42 -105 -167 -101 -165 -71 -34 -96 -158 -91 -155 -24 -151 -86 -68 -81 -144 -78 -142 -135 -132 0
-61 -115 -51 -49 -42 -105 -167 -165 -33 -96 -160 -92 -155 -24 -151 -86 -146 -81 -14 -76 -137 -71 -5 -68 0
-61 -115 -51 -49 -42 -105 -167 -165 -71 -33 -96 -160 -92 -155 -24 -151 -86 -146 -81 -14 -76 -135 -5 -66 0
-61 -115 -51 -49 -42 -105 -167 -165 -71 -33 -96 -160 -93 -155 -24 -86 -149 -82 -146 -17 -76 -137 -7 -66 0
-61 -117 -51 -49 -110 -43 -105 -167 -102 -165 -71 -34 -161 -96 -92 -155 -24 -151 -86 -68 -81 -17 -144 -78 -142 -135 -6 -132 0
-62 -116 -52 -49 -111 -43 -106 -72 -167 -102 -165 -35 -98 -161 -92 -155 -88 -24 -151 -146 -81 -15 -78 -141 -136 -5 -68 -131 0
-62 -117 -52 -49 -111 -107 -43 -167 -102 -165 -98 -34 -161 -92 -155 -88 -24 -151 -82 -146 -17 -78 -141 -137 -72 -5 -68 -131 0
-62 -120 -117 -53 -49 -110 -44 -107 -167 -101 -165 -98 -162 -91 -153 -88 -24 -149 -146 -81 -78 -12 -140 -137 -72 -5 -68 -130 0
-125 -61 -122 -115 -51 -112 -42 -105 -103 -167 -165 -163 -33 -96 -92 -155 -24 -151 -86 -146 -81 -15 -142 -13 -76 -138 -71 -133 -66 0
-117 -49 -112 -44 -107 -167 -166 -164 -98 -157 -28 -153 -24 -87 -21 -146 -78 -12 -137 -5 -66 0
-115 -112 -47 -45 -107 -167 -166 -164 -98 -157 -28 -26 -153 -86 -21 -144 -76 -10 -8 -135 -66 0
-122 -115 -49 -112 -45 -107 -167 -166 -164 -98 -159 -28 -154 -87 -151 -19 -146 -142 -76 -10 -135 -133 -66 0
-64 -54 -115 -113 -49 -45 -107 -167 -166 -165 -98 -94 -157 -26 -153 -86 -144 -76 -12 -137 -8 -68 0
-117 -49 -112 -45 -107 -167 -166 -165 -164 -98 -157 -155 -26 -87 -146 -78 -10 -138 -8 -68 0
-117 -112 -47 -44 -105 -167 -166 -165 -164 -98 -157 -155 -88 -24 -146 -78 -10 -136 -5 -68 0
-117 -49 -112 -44 -105 -167 -166 -165 -164 -98 -157 -155 -88 -24 -146 -78 -12 -137 -8 -68 0
-126 -122 -117 -112 -45 -107 -103 -166 -165 -164 -35 -98 -167 -158 -155 -26 -88 -151 -68 -146 -78 -142 -137 -132 0
168 -44 -26 0
-64 -56 -53 -115 -113 -48 -105 -168 -39 -96 -94 -157 -28 -153 -86 -84 -19 -144 -76 -12 -74 -8 -135 -66 0
-64 -125 -123 -58 -54 -115 -113 -107 -168 -103 -37 -35 -98 -94 -158 -28 -153 -88 -151 -68 -83 -19 -144 -142 -76 -74 -137 -132 0
-56 -115 -113 -49 -105 -168 -37 -164 -96 -157 -28 -153 -86 -83 -19 -144 -76 -12 -74 -8 -135 -66 0
-61 -59 -119 -117 -53 -49 -109 -107 -168 -39 -101 -165 -71 -98 -162 -91 -89 -153 -149 -81 -144 -79 -13 -139 -135 -6 -69 -129 0
-58 -117 -112 -47 -107 -168 -38 -165 -164 -98 -157 -155 -88 -84 -146 -78 -12 -74 -8 -135 -68 0
-64 -56 -54 -115 -112 -48 -105 -168 -39 -166 -96 -94 -157 -28 -153 -86 -19 -144 -76 -12 -8 -135 -66 0
-64 -56 -54 -116 -49 -112 -136 -105 -168 -166 -36 -96 -94 -30 -157 -154 -88 -19 -145 -76 -12 -8 -67 0
-64 -56 -54 -115 -112 -46 -107 -168 -39 -166 -96 -94 -157 -27 -153 -86 -19 -144 -78 -12 -137 -8 -65 0
-63 -56 -54 -115 -112 -47 -105 -168 -166 -37 -96 -94 -29 -157 -153 -86 -20 -144 -76 -12 -8 -135 -66 0
-56 -115 -112 -47 -105 -168 -166 -37 -164 -96 -30 -157 -153 -86 -19 -144 -76 -12 -8 -135 -66 0
-57 -117 -49 -112 -107 -168 -39 -166 -164 -97 -29 -157 -153 -88 -19 -145 -78 -12 -135 -6 -68 0
-56 -115 -49 -112 -107 -168 -39 -166 -164 -98 -157 -28 -153 -86 -19 -144 -76 -12 -136 -6 -66 0
-57 -116 -112 -47 -106 -168 -39 -166 -164 -98 -157 -28 -153 -86 -20 -144 -78 -12 -8 -135 -66 0
-58 -115 -49 -112 -107 -168 -166 -37 -164 -96 -30 -157 -153 -86 -19 -144 -77 -12 -137 -8 -67 0
-56 -115 -112 -46 -105 -168 -166 -37 -164 -96 -157 -28 -153 -86 -19 -144 -76 -10 -8 -135 -66 0
-58 -116 -112 -47 -105 -168 -166 -37 -164 -97 -29 -157 -155 -88 -21 -144 -78 -12 -8 -135 -66 0
-56 -115 -49 -112 -105 -168 -166 -37 -164 -96 -30 -157 -155 -86 -19 -146 -78 -12 -137 -7 -67 0
-56 -117 -112 -47 -105 -168 -166 -37 -164 -96 -157 -28 -153 -88 -20 -144 -76 -12 -135 -5 -66 0
-56 -116 -49 -112 -107 -168 -39 -166 -164 -98 -157 -28 -153 -86 -19 -145 -76 -12 -8 -135 -68 0
-56 -115 -112 -47 -105 -168 -166 -37 -164 -96 -157 -28 -153 -88 -20 -144 -78 -12 -8 -135 -66 0
-58 -115 -112 -47 -105 -168 -166 -37 -164 -96 -29 -157 -153 -87 -20 -144 -76 -12 -8 -135 -66 0
-56 -115 -112 -47 -105 -168 -166 -37 -164 -96 -157 -28 -153 -86 -19 -144 -76 -12 -8 -135 -66 0
-56 -115 -112 -47 -105 -168 -39 -166 -164 -96 -157 -28 -153 -86 -21 -144 -76 -12 -8 -135 -66 0
-56 -115 -112 -47 -105 -168 -166 -37 -164 -96 -157 -28 -153 -86 -21 -144 -76 -12 -8 -135 -66 0
-57 -115 -112 -47 -105 -168 -38 -166 -164 -97 -29 -157 -153 -86 -21 -144 -77 -12 -8 -135 -66 0
-58 -116 -49 -105 -168 -166 -37 -164 -35 -98 -160 -30 -155 -88 -151 -19 -144 -78 -14 -137 -6 -66 0
-58 -116 -49 -112 -136 -107 -168 -166 -37 -164 -165 -96 -157 -155 -88 -146 -78 -12 -8 -68 0
-58 -115 -49 -112 -107 -168 -166 -37 -164 -165 -98 -157 -155 -88 -146 -76 -12 -137 -6 -68 0
-58 -117 -49 -112 -107 -168 -166 -37 -164 -165 -98 -157 -155 -88 -146 -78 -12 -137 -8 -68 0
-56 -115 -49 -112 -105 -168 -166 -37 -164 -165 -96 -157 -153 -86 -144 -76 -12 -8 -135 -68 0
-57 -115 -112 -47 -105 -168 -166 -37 -164 -165 -96 -157 -153 -86 -144 -76 -12 -8 -135 -66 0
-56 -115 -112 -48 -105 -168 -166 -37 -164 -165 -96 -157 -155 -88 -146 -77 -12 -8 -135 -68 0
-58 -117 -49 -112 -107 -168 -38 -165 -164 -166 -98 -157 -155 -88 -146 -78 -12 -8 -135 -68 0
-56 -117 -49 -112 -105 -168 -39 -166 -165 -164 -98 -157 -153 -86 -146 -78 -12 -135 -6 -68 0
-56 -115 -49 -112 -136 -105 -168 -166 -37 -164 -165 -96 -157 -155 -86 -146 -78 -12 -8 -68 0
-58 -117 -49 -112 -107 -168 -166 -165 -36 -164 -98 -157 -155 -88 -146 -78 -12 -138 -8 -68 0
-56 -115 -112 -47 -105 -168 -166 -37 -164 -165 -96 -157 -154 -86 -146 -78 -12 -8 -135 -68 0
-57 -117 -49 -112 -106 -168 -39 -166 -165 -164 -98 -157 -155 -88 -146 -78 -12 -137 -8 -68 0
-56 -115 -112 -47 -105 -168 -38 -165 -164 -166 -96 -157 -155 -88 -144 -76 -12 -8 -135 -68 0
-56 -117 -49 -112 -107 -168 -39 -166 -165 -164 -96 -157 -155 -88 -146 -78 -12 -137 -6 -68 0
-117 -113 -49 -107 -168 -167 -164 -98 -29 -157 -154 -87 -20 -83 -146 -78 -12 -74 -137 -8 -68 0
-64 -117 -53 -113 -49 -73 -107 -168 -167 -165 -98 -93 -157 -155 -88 -84 -146 -78 -12 -137 -8 -68 0
-62 -125 -120 -117 -53 -110 -107 -168 -167 -101 -165 -35 -98 -158 -91 -153 -88 -149 -81 -144 -78 -140 -137 -71 -68 -130 0
-125 -61 -120 -52 -115 -110 -105 -168 -167 -101 -165 -35 -98 -71 -158 -91 -153 -88 -149 -81 -144 -78 -140 -135 -68 -130 0
-125 -61 -120 -52 -115 -110 -107 -168 -167 -101 -165 -35 -98 -71 -158 -91 -153 -88 -149 -81 -144 -78 -140 -135 -68 -130 0
-62 -125 -120 -117 -53 -110 -107 -168 -167 -101 -165 -35 -98 -71 -158 -91 -153 -88 -149 -81 -144 -78 -140 -135 -68 -130 0
-64 -125 -123 -117 -53 -113 -107 -168 -103 -167 -165 -35 -98 -94 -158 -155 -88 -151 -84 -146 -78 -142 -74 -137 -133 -68 0
-125 -61 -120 -117 -53 -110 -107 -168 -167 -101 -165 -35 -98 -71 -158 -91 -153 -88 -149 -81 -144 -78 -140 -135 -68 -130 0
-127 -120 -117 -73 -110 -107 -168 -167 -102 -165 -164 -35 -98 -158 -155 -88 -149 -82 -146 -78 -140 -137 -68 -130 0
-117 -49 -73 -107 -168 -167 -165 -164 -98 -34 -160 -155 -88 -151 -82 -146 -17 -78 -137 -7 -68 0
-117 -49 -112 -107 -168 -167 -166 -164 -98 -29 -157 -155 -88 -20 -146 -78 -12 -137 -8 -67 0
-115 -49 -112 -107 -168 -167 -166 -164 -98 -157 -28 -153 -86 -19 -144 -77 -12 -8 -135 -67 0
-117 -49 -112 -107 -168 -167 -166 -164 -98 -29 -157 -155 -88 -19 -146 -78 -12 -137 -8 -68 0
-117 -49 -112 -107 -168 -167 -166 -164 -98 -157 -28 -155 -88 -19 -146 -78 -12 -137 -8 -67 0
-117 -112 -47 -107 -168 -167 -166 -164 -98 -157 -28 -153 -88 -21 -146 -78 -12 -137 -6 -66 0
-117 -112 -47 -107 -168 -167 -166 -164 -98 -157 -28 -153 -86 -19 -146 -78 -12 -135 -6 -66 0
-115 -112 -47 -105 -168 -167 -166 -165 -164 -98 -157 -153 -88 -144 -76 -10 -135 -6 -68 0
-115 -49 -112 -107 -168 -167 -166 -165 -164 -98 -157 -153 -86 -144 -76 -12 -137 -8 -68 0
-117 -49 -112 -107 -168 -167 -166 -165 -164 -96 -157 -155 -88 -146 -78 -12 -137 -6 -68 0
-116 -49 -112 -107 -168 -167 -166 -165 -164 -98 -157 -155 -87 -146 -78 -12 -8 -135 -68 0
-117 -49 -112 -9 -107 -168 -167 -166 -165 -164 -98 -157 -155 -88 -146 -78 -137 -6 -68 0
-117 -49 -112 -107 -168 -167 -166 -165 -164 -98 -157 -155 -88 -146 -76 -12 -137 -8 -68 0
-117 -49 -112 -107 -168 -167 -166 -165 -164 -98 -157 -155 -86 -146 -78 -12 -137 -6 -68 0
-117 -49 -112 -107 -168 -167 -166 -165 -164 -98 -157 -155 -88 -146 -78 -12 -137 -8 -68 0
-117 -112 -47 -107 -168 -167 -166 -165 -164 -98 -157 -155 -88 -146 -78 -11 -137 -8 -68 0
-115 -49 -112 -107 -168 -167 -166 -165 -164 -98 -157 -155 -88 -146 -76 -12 -137 -8 -68 0
-115 -49 -112 -107 -168 -167 -166 -165 -164 -98 -157 -155 -86 -146 -76 -12 -137 -8 -68 0
-127 -122 -117 -112 -107 -168 -103 -166 -165 -164 -35 -98 -167 -158 -155 -88 -151 -68 -146 -78 -142 -137 -132 0
-126 -120 -117 -110 -107 -168 -103 -166 -165 -164 -35 -98 -167 -158 -155 -88 -149 -146 -78 -140 -137 -68 -131 0
-127 -120 -118 -111 -108 -168 -167 -102 -165 -164 -35 -98 -166 -158 -155 -88 -149 -146 -78 -140 -137 -68 -130 0
-126 -121 -117 -111 -107 -168 -103 -166 -165 -164 -35 -98 -167 -158 -155 -88 -149 -146 -78 -140 -137 -68 -131 0
-127 -122 -117 -112 -107 -168 -103 -166 -165 -164 -35 -98 -167 -158 -155 -88 -68 -149 -146 -78 -141 -137 -132 0
-127 -122 -117 -112 -107 -168 -103 -166 -165 -164 -35 -98 -167 -158 -155 -88 -151 -68 -147 -78 -142 -137 -132 0
-125 -122 -117 -112 -107 -168 -103 -166 -165 -164 -35 -98 -167 -158 -155 -88 -151 -68 -146 -78 -141 -137 -132 0
-127 -122 -117 -112 -107 -168 -103 -166 -165 -164 -35 -98 -167 -158 -155 -88 -150 -68 -146 -78 -141 -137 -132 0
-112 169 -93 0
-63 -122 -56 -54 -117 -47 -73 -44 -105 -169 -37 -165 -96 -159 -155 -151 -86 -84 -144 -78 -142 -12 -137 -133 -68 0
-64 -117 -53 -49 -107 -169 -168 -167 -166 -165 -98 -157 -155 -88 -146 -78 -12 -137 -8 -68 0
-64 -55 -53 -115 -47 -45 -105 -169 -37 -95 -157 -27 -26 -153 -86 -83 -18 -143 -75 -74 -9 -8 -134 -66 0
-64 -56 -54 -115 -48 -45 -105 -169 -37 -96 -30 -157 -26 -153 -88 -20 -83 -144 -76 -12 -74 -137 -8 -66 0
-62 -58 -117 -51 -49 -42 -105 -169 -103 -37 -165 -33 -96 -161 -153 -23 -86 -149 -82 -146 -14 -76 -140 -137 -71 -5 -131 -66 0
-125 -61 -122 -115 -50 -42 -105 -169 -103 -167 -33 -95 -31 -158 -155 -24 -86 -22 -149 -147 -81 -142 -76 -137 -71 -132 -66 0
-63 -54 -117 -49 -107 -169 -168 -167 -98 -30 -157 -155 -88 -84 -19 -144 -78 -12 -74 -137 -8 -66 0
-64 -56 -54 -115 -47 -45 -105 -169 -166 -37 -96 -157 -28 -26 -153 -86 -19 -144 -76 -12 -8 -135 -66 0
-64 -54 -117 -48 -106 -169 -168 -167 -165 -98 -157 -155 -88 -83 -146 -78 -12 -74 -137 -8 -68 0
-125 -61 -122 -115 -51 -42 -105 -169 -103 -167 -165 -33 -96 -158 -155 -24 -86 -150 -146 -81 -142 -76 -137 -71 -132 -66 0
-64 -117 -53 -49 -73 -107 -169 -168 -167 -165 -98 -157 -155 -88 -84 -146 -78 -12 -137 -8 -68 0
-125 -61 -122 -115 -51 -42 -105 -169 -103 -167 -165 -33 -96 -158 -155 -24 -86 -149 -146 -81 -142 -76 -137 -71 -132 -66 0
-127 -63 -122 -54 -117 -45 -107 -169 -103 -166 -165 -167 -35 -98 -158 -155 -26 -88 -151 -68 -146 -78 -142 -137 -132 0
-125 -61 -122 -115 -51 -42 -105 -169 -103 -167 -165 -33 -96 -158 -155 -24 -151 -86 -146 -81 -142 -76 -137 -71 -132 -66 0
-64 -122 -56 -117 -53 -49 -44 -105 -169 -166 -37 -165 -96 -159 -153 -151 -86 -146 -142 -76 -10 -135 -133 -68 0
-125 -61 -122 -115 -51 -42 -105 -169 -103 -167 -165 -33 -96 -158 -155 -24 -86 -149 -146 -81 -141 -76 -137 -71 -132 -66 0
-128 -64 -59 -122 -118 -54 -45 -108 -169 -40 -103 -165 -99 -35 -158 -156 -26 -89 -68 -149 -84 -147 -79 -140 -74 -138 -132 0
170 -30 -68 0
-117 -49 -112 -170 -105 -168 -167 -166 -164 -98 -157 -155 -87 -19 -144 -76 -12 -8 -135 0
-58 -115 -49 -112 -44 -107 -170 -166 -37 -164 -98 -157 -153 -24 -86 -19 -144 -76 -12 -135 -6 0
-115 -49 -112 -107 -170 -168 -167 -166 -164 -97 -157 -153 -86 -19 -144 -76 -12 -137 -6 0
-56 -115 -49 -112 -106 -170 -168 -38 -164 -96 -157 -155 -88 -84 -20 -144 -77 -12 -74 -137 -8 0
-117 -112 -47 -107 -170 -168 -167 -166 -164 -98 -157 -155 -88 -19 -146 -77 -12 -137 -8 0
-117 -49 -112 -45 -107 -170 -167 -166 -164 -98 -157 -155 -26 -88 -20 -146 -78 -12 -137 -8 0
-117 -49 -44 -107 -170 -167 -166 -164 -35 -98 -160 -155 -88 -24 -151 -20 -146 -15 -78 -137 -6 0
-21 -68 171 0
-115 -49 -112 -171 -105 -168 -167 -166 -164 -96 -157 -28 -153 -86 -144 -76 -12 -8 -135 0
-57 -115 -112 -47 -44 -171 -105 -39 -166 -164 -98 -157 -28 -155 -24 -87 -145 -78 -12 -137 -6 0
-63 -125 -122 -54 -116 -171 -105 -168 -103 -166 -167 -169 -35 -98 -158 -28 -153 -151 -86 -144 -142 -76 -137 -133 0
-123 -56 -117 -113 -46 -45 -171 -105 -37 -164 -97 -159 -27 -153 -88 -151 -84 -146 -78 -142 -12 -74 -135 -133 0
-64 -125 -123 -54 -117 -113 -45 -107 -171 -103 -167 -35 -98 -94 -158 -28 -155 -26 -88 -151 -84 -146 -78 -142 -74 -137 -132 0
-125 -60 -122 -51 -114 -112 -171 -42 -105 -167 -101 -35 -96 -31 -158 -91 -155 -24 -151 -86 -81 -144 -142 -76 -71 -134 -132 0
-125 -61 -122 -115 -51 -111 -171 -42 -105 -167 -102 -71 -35 -96 -31 -158 -92 -154 -88 -24 -151 -81 -144 -78 -141 -135 -131 0
-128 -64 -122 -118 -54 -112 -45 -108 -171 -103 -167 -99 -35 -94 -158 -28 -156 -26 -88 -151 -84 -147 -78 -142 -74 -138 -132 0
-63 -53 172 0
-125 -120 -117 -110 -172 -107 -168 -167 -102 -165 -35 -98 -158 -92 -155 -88 -149 -82 -146 -78 -140 -137 -72 -68 -130 0
-125 -120 -117 -110 -172 -107 -168 -167 -101 -165 -35 -98 -158 -91 -155 -88 -149 -146 -81 -78 -140 -137 -72 -68 -130 0
-125 -120 -117 -110 -172 -107 -168 -167 -101 -165 -35 -98 -158 -92 -155 -88 -149 -146 -81 -78 -140 -137 -72 -68 -130 0
-125 -120 -117 -110 -172 -107 -168 -167 -102 -165 -35 -98 -158 -92 -155 -88 -149 -146 -81 -78 -140 -137 -72 -68 -131 0
-56 -117 -49 -112 -172 -171 -105 -168 -39 -166 -98 -94 -157 -28 -153 -86 -144 -76 -12 -8 -135 0
-93 164 -172 0
-127 -120 -117 -110 -172 -107 -168 -167 -101 -165 -35 -98 -158 -92 -155 -88 -149 -82 -146 -79 -140 -137 -72 -68 -130 0
-58 -117 -49 -112 -172 -107 -168 -38 -165 -166 -98 -94 -157 -155 -88 -146 -78 -12 -137 -8 -68 0
-116 -112 -48 -172 -105 -168 -167 -166 -165 -99 -94 -157 -154 -86 -144 -76 -12 -8 -135 -66 0
-112 173 -73 0
-58 -117 -49 -173 -107 -168 -37 -164 -165 -98 -157 -155 -88 -84 -146 -78 -12 -135 -6 -68 0
-125 -122 -58 -115 -173 -107 -170 -168 -103 -37 -164 -35 -96 -158 -155 -88 -151 -84 -19 -146 -78 -142 -137 -133 0
-122 -56 -115 -46 -173 -44 -105 -39 -164 -98 -159 -27 -152 -85 -149 -19 -82 -144 -142 -76 -12 -135 -132 -66 0
-64 -123 -58 -54 -115 -47 -173 -44 -107 -37 -165 -96 -159 -94 -155 -88 -151 -84 -146 -142 -76 -12 -137 -133 -68 0
-58 -115 -47 -173 -105 -168 -37 -164 -98 -157 -28 -153 -86 -84 -19 -144 -76 -12 -8 -135 -66 0
-112 -83 174 0
-117 -49 -174 -45 -107 -170 -167 -164 -98 -157 -155 -26 -86 -20 -146 -77 -12 -74 -137 -8 0
-56 -115 -46 -174 -105 -168 -37 -164 -96 -157 -28 -153 -86 -19 -144 -76 -12 -74 -8 -135 -66 0
-125 -122 -58 -115 -174 -107 -168 -103 -37 -164 -35 -98 -158 -28 -153 -88 -151 -19 -144 -142 -77 -74 -137 -133 -66 0
-115 -49 -174 -105 -168 -167 -165 -164 -98 -157 -155 -88 -146 -78 -12 -74 -137 -8 -68 0
